DIMACS_lns/graph-1000-81.col
p edge 1000 1784
e 1 78
e 1 827
e 1 213
e 1 431
e 1 452
e 4 274
e 4 757
e 4 313
e 5 886
e 5 487
e 5 904
e 6 654
e 6 591
e 6 500
e 6 622
e 6 376
e 6 413
e 8 10
e 8 590
e 8 335
e 8 609
e 8 124
e 8 62
e 8 594
e 10 722
e 10 56
e 10 467
e 11 717
e 11 313
e 11 318
e 11 244
e 11 28
e 11 516
e 13 465
e 13 217
e 13 123
e 14 670
e 14 970
e 14 105
e 15 616
e 15 792
e 15 504
e 15 346
e 19 289
e 19 100
e 19 241
e 19 973
e 19 829
e 20 851
e 20 752
e 20 557
e 20 363
e 22 406
e 22 788
e 22 917
e 22 71
e 22 76
e 22 698
e 22 772
e 23 952
e 23 300
e 23 253
e 23 787
e 23 862
e 28 332
e 28 317
e 30 935
e 30 709
e 30 123
e 30 273
e 31 624
e 31 299
e 31 658
e 31 940
e 31 870
e 31 781
e 32 773
e 32 954
e 32 808
e 33 227
e 33 894
e 33 581
e 33 106
e 33 324
e 34 325
e 34 641
e 34 82
e 35 271
e 35 153
e 35 191
e 35 697
e 35 330
e 36 71
e 36 608
e 36 128
e 40 111
e 40 542
e 40 969
e 40 543
e 40 729
e 40 233
e 40 364
e 41 304
e 41 634
e 41 385
e 43 345
e 43 206
e 43 745
e 44 624
e 44 812
e 44 586
e 44 901
e 44 644
e 44 56
e 44 148
e 45 423
e 45 538
e 45 100
e 45 884
e 45 869
e 46 148
e 46 759
e 46 984
e 46 127
e 46 501
e 47 658
e 47 572
e 47 396
e 47 342
e 47 683
e 47 866
e 49 207
e 49 960
e 49 862
e 51 494
e 51 337
e 51 330
e 51 908
e 54 454
e 54 277
e 54 962
e 54 146
e 54 864
e 54 346
e 54 808
e 55 156
e 55 81
e 55 309
e 55 63
e 55 458
e 56 966
e 56 743
e 56 957
e 56 940
e 56 77
e 56 889
e 57 749
e 57 819
e 57 448
e 57 652
e 57 59
e 57 986
e 57 405
e 57 373
e 57 144
e 58 960
e 58 500
e 58 435
e 58 524
e 59 873
e 59 217
e 59 868
e 59 921
e 62 222
e 62 563
e 62 208
e 62 174
e 62 492
e 63 357
e 63 206
e 63 851
e 63 784
e 64 354
e 64 446
e 64 312
e 64 290
e 65 457
e 65 156
e 65 891
e 65 781
e 68 100
e 68 259
e 68 396
e 68 838
e 68 917
e 68 911
e 68 308
e 69 212
e 69 873
e 69 274
e 69 83
e 69 567
e 69 463
e 70 578
e 70 322
e 70 654
e 70 839
e 70 640
e 70 83
e 71 820
e 71 175
e 71 692
e 71 267
e 71 255
e 72 236
e 72 658
e 72 454
e 72 414
e 72 395
e 73 987
e 73 443
e 73 871
e 75 560
e 75 652
e 75 757
e 75 182
e 76 318
e 76 428
e 77 814
e 77 889
e 77 874
e 77 238
e 78 872
e 78 669
e 78 918
e 78 852
e 79 434
e 79 335
e 79 957
e 79 411
e 79 677
e 80 298
e 80 756
e 80 344
e 80 883
e 80 455
e 80 796
e 81 282
e 81 839
e 82 391
e 82 372
e 82 330
e 82 580
e 83 986
e 83 547
e 83 329
e 83 169
e 85 681
e 85 145
e 85 986
e 85 896
e 85 246
e 85 192
e 86 919
e 86 434
e 86 857
e 87 248
e 87 607
e 87 938
e 90 759
e 90 149
e 90 882
e 93 904
e 93 236
e 93 231
e 94 378
e 94 867
e 94 271
e 94 871
e 94 209
e 95 736
e 95 282
e 95 195
e 95 416
e 95 413
e 95 426
e 95 378
e 98 886
e 98 128
e 98 773
e 98 746
e 98 603
e 99 139
e 99 908
e 99 356
e 99 250
e 100 465
e 100 277
e 100 981
e 100 482
e 100 915
e 100 133
e 100 357
e 100 485
e 101 103
e 101 897
e 101 597
e 101 632
e 102 269
e 102 973
e 102 587
e 103 774
e 103 293
e 103 814
e 105 582
e 105 704
e 105 388
e 105 589
e 105 369
e 106 952
e 106 460
e 106 965
e 106 225
e 106 679
e 106 787
e 106 601
e 106 444
e 108 775
e 108 401
e 108 392
e 108 179
e 108 503
e 110 424
e 110 722
e 110 161
e 110 363
e 110 369
e 111 683
e 111 367
e 112 212
e 112 145
e 112 683
e 112 194
e 112 636
e 113 121
e 113 855
e 113 568
e 114 300
e 114 412
e 114 313
e 114 867
e 115 964
e 115 408
e 115 122
e 115 796
e 115 730
e 115 139
e 117 679
e 117 610
e 117 194
e 117 195
e 117 843
e 118 749
e 118 233
e 118 857
e 119 932
e 119 812
e 119 173
e 119 187
e 119 175
e 119 357
e 119 845
e 119 851
e 119 866
e 119 210
e 119 184
e 120 155
e 120 143
e 120 560
e 120 332
e 121 688
e 121 413
e 121 995
e 121 503
e 122 304
e 122 839
e 122 828
e 122 364
e 122 214
e 122 333
e 123 271
e 123 804
e 123 187
e 123 472
e 123 500
e 124 332
e 124 214
e 125 535
e 125 612
e 125 271
e 125 464
e 127 651
e 127 862
e 127 385
e 127 880
e 128 881
e 129 135
e 129 842
e 129 347
e 131 782
e 131 713
e 131 313
e 131 340
e 132 187
e 132 858
e 132 383
e 133 634
e 133 805
e 133 563
e 133 234
e 134 726
e 134 976
e 134 203
e 134 863
e 135 824
e 135 264
e 135 580
e 138 410
e 138 758
e 138 673
e 138 702
e 138 805
e 139 148
e 139 819
e 140 938
e 140 335
e 140 252
e 140 929
e 141 517
e 141 907
e 141 437
e 143 151
e 143 480
e 143 688
e 143 410
e 143 353
e 144 736
e 144 630
e 145 464
e 145 352
e 145 971
e 145 641
e 146 356
e 146 960
e 146 524
e 148 828
e 148 631
e 148 206
e 148 428
e 148 705
e 149 643
e 149 575
e 149 364
e 149 505
e 151 631
e 151 391
e 151 195
e 151 506
e 151 717
e 153 695
e 153 788
e 153 310
e 153 911
e 154 702
e 154 227
e 154 871
e 154 679
e 154 923
e 155 548
e 155 225
e 155 924
e 155 939
e 156 932
e 157 195
e 157 528
e 157 490
e 158 270
e 158 983
e 158 407
e 158 438
e 159 199
e 159 570
e 159 776
e 161 690
e 161 331
e 161 305
e 161 289
e 161 744
e 163 774
e 163 224
e 163 171
e 164 914
e 164 187
e 164 838
e 166 598
e 166 761
e 166 465
e 167 516
e 167 945
e 167 548
e 167 428
e 167 400
e 167 195
e 169 826
e 169 438
e 169 861
e 171 856
e 171 395
e 173 758
e 173 583
e 173 174
e 174 264
e 174 390
e 174 237
e 174 850
e 174 205
e 174 299
e 175 841
e 175 539
e 175 548
e 175 190
e 179 363
e 179 1000
e 179 457
e 179 571
e 182 716
e 182 924
e 183 361
e 183 213
e 183 620
e 183 735
e 183 864
e 184 364
e 184 189
e 184 578
e 184 570
e 186 620
e 186 616
e 186 559
e 187 916
e 187 620
e 188 610
e 188 689
e 188 312
e 188 424
e 189 932
e 189 383
e 190 633
e 190 214
e 190 855
e 190 979
e 190 766
e 190 620
e 191 788
e 191 618
e 191 345
e 191 653
e 192 420
e 192 747
e 192 810
e 192 267
e 193 501
e 193 679
e 193 702
e 193 658
e 193 644
e 193 295
e 194 689
e 194 320
e 196 855
e 196 864
e 196 877
e 196 325
e 196 897
e 196 789
e 197 891
e 197 677
e 197 798
e 198 977
e 198 660
e 198 869
e 198 683
e 198 809
e 198 246
e 199 714
e 199 867
e 199 832
e 199 604
e 200 208
e 200 968
e 200 346
e 200 372
e 201 419
e 201 945
e 201 543
e 201 695
e 202 335
e 202 586
e 202 523
e 202 593
e 203 293
e 203 807
e 203 629
e 203 790
e 204 373
e 204 731
e 204 258
e 204 501
e 205 389
e 205 935
e 205 937
e 206 602
e 206 972
e 206 891
e 207 773
e 207 436
e 207 919
e 208 665
e 208 927
e 208 980
e 208 904
e 208 462
e 209 591
e 209 590
e 209 846
e 209 784
e 210 831
e 210 769
e 210 316
e 210 920
e 212 344
e 212 990
e 212 978
e 212 809
e 213 568
e 213 217
e 213 702
e 213 916
e 213 340
e 214 674
e 214 551
e 214 664
e 215 741
e 215 364
e 215 696
e 216 661
e 216 566
e 216 259
e 216 882
e 217 375
e 217 732
e 217 396
e 217 668
e 217 636
e 218 361
e 218 511
e 218 401
e 218 730
e 219 407
e 219 622
e 219 571
e 220 952
e 220 761
e 220 708
e 220 748
e 221 665
e 221 542
e 221 629
e 221 340
e 221 881
e 221 773
e 222 614
e 222 239
e 222 804
e 224 995
e 224 607
e 225 656
e 225 899
e 225 998
e 225 306
e 225 680
e 225 628
e 225 988
e 226 892
e 226 367
e 226 661
e 226 822
e 227 988
e 227 482
e 227 829
e 228 304
e 228 477
e 228 631
e 228 998
e 228 663
e 228 256
e 228 511
e 228 270
e 229 523
e 229 574
e 229 690
e 229 999
e 230 361
e 230 369
e 230 566
e 231 697
e 231 871
e 231 726
e 233 459
e 233 812
e 233 313
e 233 438
e 234 586
e 234 840
e 235 378
e 235 501
e 235 651
e 236 878
e 236 317
e 236 692
e 236 960
e 236 796
e 237 432
e 237 518
e 238 580
e 238 804
e 239 552
e 239 914
e 239 969
e 239 792
e 239 972
e 240 560
e 240 938
e 240 722
e 240 974
e 241 431
e 241 491
e 242 944
e 242 407
e 242 890
e 242 657
e 242 655
e 243 254
e 243 906
e 243 704
e 243 354
e 243 929
e 244 969
e 244 400
e 246 339
e 246 286
e 246 494
e 246 895
e 246 580
e 248 914
e 248 258
e 248 455
e 250 517
e 250 371
e 250 369
e 250 403
e 252 775
e 252 590
e 253 437
e 253 900
e 254 858
e 254 347
e 254 305
e 254 698
e 254 870
e 255 523
e 255 843
e 256 435
e 256 517
e 257 609
e 257 645
e 257 566
e 257 862
e 257 980
e 258 507
e 258 880
e 259 871
e 260 338
e 260 526
e 260 896
e 261 938
e 261 860
e 261 352
e 261 740
e 261 282
e 262 676
e 262 598
e 262 979
e 262 705
e 262 896
e 262 889
e 264 483
e 266 914
e 266 603
e 266 478
e 266 462
e 266 464
e 266 736
e 267 539
e 267 788
e 267 942
e 267 897
e 267 530
e 267 431
e 268 489
e 268 954
e 268 451
e 269 673
e 269 541
e 270 426
e 270 282
e 270 664
e 270 865
e 271 582
e 271 871
e 271 756
e 272 452
e 272 499
e 272 788
e 273 971
e 273 713
e 273 680
e 274 805
e 276 713
e 276 650
e 276 335
e 276 436
e 276 939
e 276 474
e 277 446
e 277 806
e 277 401
e 278 364
e 278 820
e 278 735
e 282 879
e 282 914
e 282 385
e 284 402
e 284 363
e 284 601
e 285 317
e 285 505
e 285 354
e 286 546
e 286 376
e 286 943
e 286 807
e 286 654
e 289 538
e 289 920
e 289 983
e 290 695
e 290 746
e 292 598
e 292 378
e 292 956
e 292 824
e 293 974
e 293 537
e 293 339
e 295 894
e 295 999
e 298 897
e 298 607
e 298 377
e 298 372
e 298 776
e 298 907
e 299 747
e 299 882
e 300 600
e 301 505
e 301 379
e 301 680
e 301 902
e 304 522
e 304 485
e 304 568
e 304 716
e 304 701
e 305 613
e 305 833
e 305 414
e 306 766
e 306 744
e 308 356
e 308 381
e 308 800
e 308 368
e 309 787
e 309 373
e 310 679
e 310 965
e 310 504
e 310 904
e 310 630
e 312 993
e 312 444
e 312 697
e 312 447
e 312 398
e 313 980
e 313 1000
e 316 652
e 316 593
e 316 769
e 316 542
e 316 708
e 316 470
e 317 436
e 317 522
e 317 368
e 318 652
e 320 577
e 320 361
e 320 744
e 322 447
e 322 598
e 322 520
e 323 802
e 323 879
e 323 620
e 323 388
e 324 937
e 324 786
e 324 841
e 324 472
e 324 415
e 325 451
e 325 838
e 325 732
e 329 865
e 329 643
e 329 368
e 330 340
e 330 474
e 331 503
e 331 842
e 331 642
e 331 583
e 331 402
e 331 903
e 332 548
e 332 403
e 332 343
e 333 850
e 333 937
e 333 590
e 335 490
e 335 922
e 337 566
e 337 865
e 338 858
e 338 557
e 338 388
e 338 408
e 339 407
e 339 504
e 339 856
e 339 526
e 339 421
e 340 430
e 340 713
e 342 550
e 342 834
e 342 645
e 343 438
e 343 937
e 344 852
e 344 746
e 344 921
e 344 772
e 345 655
e 345 773
e 346 736
e 346 357
e 346 680
e 347 669
e 347 964
e 347 361
e 347 600
e 347 960
e 347 444
e 347 814
e 349 591
e 349 438
e 349 393
e 349 790
e 349 723
e 352 737
e 352 861
e 352 726
e 353 701
e 353 882
e 354 696
e 354 628
e 354 923
e 354 964
e 354 869
e 354 886
e 355 593
e 355 518
e 355 367
e 356 964
e 356 922
e 361 766
e 361 990
e 361 457
e 361 827
e 361 851
e 362 411
e 362 611
e 362 848
e 363 632
e 363 577
e 363 381
e 363 597
e 363 420
e 364 516
e 364 939
e 364 766
e 364 478
e 364 526
e 367 515
e 367 500
e 367 740
e 368 633
e 368 473
e 369 705
e 369 960
e 371 634
e 371 772
e 371 708
e 371 924
e 371 663
e 371 467
e 372 685
e 372 962
e 373 426
e 373 839
e 374 831
e 374 677
e 374 749
e 375 766
e 375 463
e 376 813
e 376 506
e 376 737
e 376 867
e 377 724
e 377 664
e 377 835
e 378 724
e 378 692
e 379 439
e 379 813
e 379 814
e 380 657
e 380 997
e 380 897
e 381 413
e 381 784
e 383 436
e 385 992
e 385 854
e 388 526
e 388 827
e 389 640
e 389 731
e 389 533
e 390 903
e 390 946
e 391 796
e 391 458
e 391 889
e 391 773
e 392 725
e 392 669
e 392 610
e 392 684
e 392 746
e 393 995
e 393 724
e 395 575
e 395 841
e 395 688
e 395 613
e 396 547
e 396 987
e 396 559
e 396 741
e 398 751
e 398 672
e 398 978
e 400 453
e 400 550
e 400 784
e 401 804
e 402 900
e 402 978
e 402 695
e 402 487
e 402 894
e 402 548
e 402 444
e 403 882
e 403 930
e 403 507
e 403 533
e 404 834
e 404 881
e 404 624
e 405 708
e 405 440
e 405 491
e 405 918
e 405 906
e 406 859
e 406 749
e 406 834
e 406 438
e 406 658
e 407 485
e 407 411
e 407 665
e 407 846
e 408 788
e 410 981
e 410 983
e 411 528
e 411 692
e 412 800
e 412 702
e 412 696
e 413 858
e 413 493
e 414 631
e 414 895
e 415 983
e 415 740
e 415 723
e 416 938
e 416 601
e 419 473
e 419 467
e 419 449
e 419 895
e 420 617
e 421 745
e 421 517
e 421 762
e 421 445
e 422 507
e 422 981
e 422 983
e 423 861
e 423 912
e 423 668
e 423 887
e 424 543
e 426 544
e 426 726
e 430 736
e 430 723
e 430 802
e 430 985
e 430 632
e 431 730
e 431 725
e 431 470
e 431 787
e 432 840
e 432 827
e 434 735
e 434 628
e 434 669
e 435 532
e 435 810
e 436 796
e 436 538
e 436 940
e 437 681
e 437 601
e 437 854
e 438 800
e 438 764
e 438 470
e 439 538
e 439 716
e 439 501
e 440 769
e 440 772
e 440 776
e 440 451
e 443 662
e 443 726
e 443 750
e 444 672
e 444 991
e 444 642
e 444 551
e 444 863
e 445 848
e 445 490
e 446 926
e 446 896
e 446 651
e 446 604
e 446 583
e 447 449
e 448 841
e 448 842
e 448 526
e 449 494
e 449 590
e 449 834
e 449 997
e 451 557
e 451 855
e 451 744
e 452 688
e 453 862
e 453 530
e 453 477
e 454 872
e 454 735
e 454 896
e 455 786
e 457 692
e 457 702
e 458 633
e 459 722
e 459 531
e 460 669
e 460 562
e 460 956
e 462 929
e 462 966
e 463 716
e 464 475
e 464 481
e 464 992
e 464 939
e 464 620
e 465 974
e 465 770
e 465 653
e 467 533
e 467 591
e 467 869
e 467 886
e 467 770
e 467 700
e 467 922
e 470 964
e 470 685
e 471 690
e 471 632
e 471 617
e 472 505
e 473 563
e 473 734
e 473 492
e 474 480
e 474 697
e 475 612
e 475 838
e 475 641
e 475 511
e 475 736
e 477 589
e 477 947
e 477 912
e 478 916
e 478 894
e 478 616
e 478 672
e 478 975
e 480 845
e 480 985
e 481 998
e 481 725
e 481 731
e 481 504
e 482 957
e 482 890
e 482 654
e 483 500
e 483 789
e 485 927
e 485 962
e 485 650
e 487 650
e 487 586
e 487 528
e 487 991
e 489 508
e 489 505
e 491 683
e 491 786
e 492 884
e 493 837
e 493 945
e 493 802
e 493 923
e 495 523
e 495 991
e 495 570
e 495 696
e 495 537
e 499 525
e 499 762
e 500 593
e 500 622
e 501 874
e 503 526
e 503 827
e 503 808
e 503 697
e 504 531
e 504 918
e 504 883
e 505 791
e 505 801
e 505 538
e 506 540
e 507 899
e 507 575
e 508 798
e 508 870
e 508 604
e 509 604
e 509 552
e 509 668
e 511 570
e 511 985
e 515 616
e 515 923
e 515 903
e 515 873
e 517 611
e 518 892
e 520 908
e 520 946
e 520 544
e 522 972
e 522 894
e 523 563
e 523 653
e 524 844
e 524 981
e 524 636
e 525 725
e 525 663
e 526 696
e 526 883
e 528 564
e 528 709
e 530 919
e 530 827
e 530 766
e 531 821
e 531 658
e 531 964
e 531 632
e 531 806
e 532 827
e 532 656
e 532 937
e 533 965
e 535 628
e 535 896
e 535 696
e 537 800
e 539 686
e 540 687
e 540 782
e 540 873
e 540 917
e 541 609
e 541 608
e 542 698
e 542 716
e 543 906
e 543 634
e 543 704
e 543 636
e 544 562
e 544 921
e 546 642
e 546 738
e 547 921
e 547 896
e 547 597
e 547 613
e 547 729
e 548 998
e 548 602
e 548 624
e 548 988
e 548 751
e 550 661
e 550 656
e 550 724
e 550 630
e 550 652
e 551 832
e 552 980
e 556 636
e 556 735
e 556 640
e 557 904
e 559 660
e 559 915
e 560 586
e 560 704
e 561 632
e 561 858
e 561 665
e 562 933
e 563 784
e 563 650
e 563 601
e 564 945
e 564 851
e 566 802
e 566 575
e 566 894
e 567 884
e 567 819
e 567 856
e 568 735
e 570 658
e 570 821
e 570 999
e 571 598
e 571 709
e 572 800
e 572 714
e 572 613
e 573 732
e 573 943
e 573 806
e 573 820
e 574 686
e 574 981
e 574 604
e 574 915
e 577 673
e 577 1000
e 578 702
e 578 984
e 580 614
e 581 926
e 581 820
e 582 901
e 582 704
e 583 990
e 583 993
e 583 770
e 583 627
e 583 736
e 585 743
e 585 764
e 585 756
e 586 832
e 586 796
e 586 984
e 587 840
e 587 609
e 587 904
e 589 770
e 589 924
e 590 977
e 591 664
e 591 613
e 591 956
e 591 685
e 594 973
e 594 871
e 597 998
e 597 866
e 600 757
e 600 770
e 602 923
e 603 740
e 603 798
e 603 869
e 604 887
e 608 838
e 608 633
e 609 810
e 611 626
e 612 805
e 613 869
e 613 966
e 613 628
e 614 813
e 614 832
e 617 835
e 618 942
e 618 631
e 620 743
e 622 725
e 622 880
e 622 749
e 624 992
e 626 947
e 626 665
e 627 822
e 627 975
e 628 863
e 628 802
e 628 804
e 629 750
e 629 839
e 631 903
e 632 701
e 634 857
e 634 907
e 636 819
e 636 692
e 636 766
e 640 889
e 640 740
e 640 863
e 641 868
e 641 764
e 642 685
e 643 968
e 643 982
e 644 902
e 645 821
e 645 894
e 645 791
e 645 766
e 645 889
e 645 961
e 650 850
e 651 915
e 652 916
e 652 938
e 652 945
e 653 852
e 653 826
e 653 686
e 654 939
e 654 714
e 654 827
e 654 737
e 655 776
e 655 979
e 656 984
e 657 894
e 657 901
e 660 746
e 662 960
e 662 864
e 663 845
e 663 911
e 665 932
e 665 879
e 669 764
e 669 756
e 670 704
e 670 880
e 674 870
e 674 808
e 674 751
e 674 702
e 674 946
e 676 942
e 676 684
e 676 822
e 677 688
e 677 737
e 679 888
e 680 988
e 680 835
e 681 748
e 684 819
e 684 781
e 685 938
e 685 882
e 686 696
e 687 835
e 687 993
e 687 895
e 687 841
e 687 998
e 688 759
e 689 714
e 689 850
e 690 956
e 692 805
e 692 698
e 695 878
e 697 848
e 697 974
e 700 757
e 700 837
e 700 833
e 700 897
e 701 812
e 701 917
e 701 947
e 702 759
e 704 792
e 705 867
e 707 995
e 707 935
e 707 888
e 709 798
e 713 927
e 713 866
e 717 964
e 722 999
e 722 879
e 722 828
e 722 880
e 723 964
e 723 867
e 723 900
e 724 872
e 725 762
e 725 841
e 729 926
e 730 738
e 730 735
e 732 877
e 732 790
e 732 917
e 732 844
e 734 912
e 734 827
e 735 877
e 735 977
e 736 867
e 738 993
e 738 972
e 738 748
e 741 826
e 744 966
e 744 870
e 744 930
e 745 982
e 746 787
e 747 854
e 747 961
e 748 776
e 749 990
e 749 831
e 750 800
e 750 872
e 750 869
e 751 796
e 751 882
e 751 804
e 752 781
e 752 972
e 757 878
e 757 809
e 758 854
e 758 846
e 759 801
e 761 890
e 762 935
e 762 977
e 764 835
e 769 798
e 769 947
e 769 968
e 770 774
e 772 879
e 774 860
e 775 954
e 781 971
e 781 998
e 781 924
e 782 824
e 784 810
e 784 855
e 786 871
e 788 1000
e 788 966
e 788 872
e 788 804
e 788 943
e 789 927
e 790 807
e 790 961
e 791 800
e 792 983
e 792 970
e 796 834
e 798 912
e 801 903
e 802 911
e 804 986
e 804 833
e 806 900
e 807 890
e 819 839
e 819 903
e 827 939
e 829 854
e 835 978
e 837 867
e 839 945
e 840 890
e 840 970
e 841 964
e 841 911
e 841 942
e 841 984
e 843 938
e 843 870
e 844 922
e 845 874
e 850 879
e 855 988
e 856 966
e 857 919
e 857 982
e 859 888
e 859 952
e 860 946
e 865 919
e 865 980
e 865 877
e 868 902
e 869 970
e 870 891
e 870 991
e 873 884
e 874 975
e 874 906
e 878 944
e 881 946
e 882 916
e 887 984
e 887 966
e 889 920
e 891 933
e 892 896
e 897 968
e 897 899
e 899 906
e 900 918
e 904 960
e 904 944
e 911 993
e 920 938
e 921 945
e 922 999
e 922 954
e 923 930
e 933 945
e 940 973
e 947 999
e 956 984
e 956 992
e 957 1000
e 970 995
e 972 1000
e 976 987
e 976 991
e 979 997
